data;

### SETS ###

set NODES :=
entry03
entry01
entry02
exit03
exit02
exit01
N03
N04
N01
N05
N02
;

set SOURCES :=
entry03
entry01
entry02
;

set SINKS :=
exit03
exit02
exit01
;

set NAMES :=
pipe06
pipe05
pipe08
pipe04
pipe07
pipe01
pipe03
pipe02
CS02
CS01
V01_N01_N03
;

set ARCS :=
(N03, N04, pipe06)
(N02, N04, pipe05)
(N05, exit03, pipe08)
(N02, exit01, pipe04)
(N05, exit02, pipe07)
(entry01, entry03, pipe01)
(entry02, N03, pipe03)
(N01, N02, pipe02)
(N04, N05, CS02)
(entry03, N01, CS01)
(N01, N03, V01_N01_N03)
;

set PIPES :=
(N03, N04, pipe06)
(N02, N04, pipe05)
(N05, exit03, pipe08)
(N02, exit01, pipe04)
(N05, exit02, pipe07)
(entry01, entry03, pipe01)
(entry02, N03, pipe03)
(N01, N02, pipe02)
;

set  COMPRESSORS:=
(N04, N05, CS02)
(entry03, N01, CS01)
;

set  CONTROLVALVES:=
;

set  VALVES:=
(N01, N03, V01_N01_N03)
;

set  SHORTPIPES:=
;

set  RESISTORS:=
;

### PARAMS ###


# for NODES
param: FlowInOut PressureLower PressureUpper :=
entry03 0.0 40.0 70.0
entry01 44.44444444444444 40.0 70.0
entry02 38.88888888888889 40.0 70.0
exit03 -22.22222222222222 40.0 60.0
exit02 -33.333333333333336 40.0 60.0
exit01 -27.77777777777778 40.0 70.0
N03 0 40.0 70.0
N04 0 40.0 70.0
N01 0 40.0 70.0
N05 0 40.0 70.0
N02 0 40.0 70.0
;

# for Mean molar mass
param AvgMolarMass =
0.018567399999999998
;
param AvgGasTemp =
275.00674
;
param AvgPressure =
55.0
;
param AvgPseudoPressure =
45.9293457336
;
param AvgPseudoTemp =
188.549758911
;

# for SOURCES
param: CalorificValue GasTemperature MolarMass:=
entry03 34.070406016214946 10.0 18.5674
entry01 36.22166129523701 10.0 18.5674
entry02 32.93177086605543 10.0 18.5674
;

# for SINKS
param: FlowLowerNode FlowUpperNode :=
exit03 -166.66666666666669 0
exit02 -111.11111111111111 0
exit01 -347.22222222222223 0
;

# for ARCS
param: FlowLowerArc FlowUpperArc :=
N03 N04 pipe06 -305.55555555555554 305.55555555555554
N02 N04 pipe05 -305.55555555555554 305.55555555555554
N05 exit03 pipe08 -305.55555555555554 305.55555555555554
N02 exit01 pipe04 -305.55555555555554 305.55555555555554
N05 exit02 pipe07 -305.55555555555554 305.55555555555554
entry01 entry03 pipe01 -305.55555555555554 305.55555555555554
entry02 N03 pipe03 -305.55555555555554 305.55555555555554
N01 N02 pipe02 -305.55555555555554 305.55555555555554
N04 N05 CS02 0.0 305.55555555555554
entry03 N01 CS01 0.0 305.55555555555554
N01 N03 V01_N01_N03 -305.55555555555554 305.55555555555554
;

# for PIPES
param: Roughness Diameter Length e d :=
N03 N04 pipe06 0.0001 0.5 55000.0 0.0690765951856635 0.0690765951856635
N02 N04 pipe05 0.0001 0.5 55000.0 0.0690765951856635 0.0690765951856635
N05 exit03 pipe08 0.0001 0.5 55000.0 0.0690765951856635 0.0690765951856635
N02 exit01 pipe04 0.0001 0.5 55000.0 0.0690765951856635 0.0690765951856635
N05 exit02 pipe07 0.0001 0.5 55000.0 0.0690765951856635 0.0690765951856635
entry01 entry03 pipe01 0.0001 0.5 55000.0 0.0690765951856635 0.0690765951856635
entry02 N03 pipe03 0.0001 0.5 55000.0 0.0690765951856635 0.0690765951856635
N01 N02 pipe02 0.0001 0.5 55000.0 0.0690765951856635 0.0690765951856635
;

# for COMPRESSORSTATIONS & CONTROLVAVES
param:  PressureChangeUpper PressureChangeLower :=
N04 N05 CS02 30.0 0
entry03 N01 CS01 30.0 0
;